0000000000000000
0111111111111000
0000000000001100
0000000000001100
0000111000001100
0000011000001100
0000011000001100
0000011000001100
0000011000001100
0000011000001100
0000011000001100
0000011000001100
0000011000001100
0000000000000000
0000000000000000
0000000000000000
